language ESSENCE' 1.0

letting n_courses be 103
letting n_periods be 21
letting prerequisite_RelationAsSet_Explicit_1 be
        [1, 1, 1, 1, 1, 1, 1, 1, 1, 1, 1, 1, 1, 1, 1, 1, 1, 2, 2, 2, 2, 2, 2, 2, 2, 2, 2, 2, 2, 2, 2, 2, 2, 2, 2, 2, 2,
         3, 3, 3, 3, 3, 3, 3, 3, 3, 3, 3, 3, 3, 3, 3, 3, 3, 3, 4, 4, 4, 4, 4, 4, 4, 4, 4, 4, 4, 4, 4, 4, 4, 4, 4, 4, 4,
         4, 4, 5, 5, 5, 5, 5, 5, 5, 5, 5, 5, 5, 5, 5, 5, 6, 6, 6, 6, 6, 6, 6, 6, 6, 6, 6, 6, 6, 6, 7, 7, 7, 7, 7, 7, 7,
         7, 7, 7, 7, 7, 7, 8, 8, 8, 8, 8, 8, 8, 8, 8, 8, 8, 8, 8, 8, 8, 8, 8, 8, 8, 8, 9, 9, 9, 9, 9, 9, 9, 9, 9, 9, 9,
         9, 9, 9, 10, 10, 10, 10, 10, 10, 10, 10, 10, 10, 10, 10, 10, 10, 10, 10, 10, 10, 10, 10, 10, 11, 11, 11, 11,
         11, 11, 11, 11, 11, 11, 11, 11, 11, 11, 11, 11, 11, 12, 12, 12, 12, 12, 12, 12, 12, 12, 12, 12, 12, 12, 12, 12,
         12, 12, 12, 12, 12, 12, 12, 13, 13, 13, 13, 13, 13, 13, 13, 13, 13, 13, 13, 13, 13, 13, 13, 13, 13, 13, 13, 14,
         14, 14, 15, 15, 16, 17, 18, 19, 20, 20, 20, 21, 21, 23, 23, 23, 25, 25, 27, 27, 27, 27, 28, 29, 29, 30, 30, 30,
         31, 31, 32, 32, 32, 33, 33, 33, 34, 34, 35, 37, 37, 37, 37, 39, 40, 41, 42, 42, 42, 42, 43, 43, 43, 43, 44, 44,
         44, 45, 45, 46, 46, 46, 46, 47, 47, 47, 48, 48, 48, 48, 49, 49, 50, 51, 51, 51, 52, 52, 53, 54, 55, 55, 55, 56,
         56, 56, 57, 57, 59, 59, 59, 60, 60, 60, 61, 62, 62, 62, 62, 63, 65, 66, 67, 68, 68, 68, 68, 68, 69, 69, 69, 70,
         71, 71, 72, 73, 74, 74, 74, 75, 75, 76, 76, 76, 76, 76, 76, 77, 77, 78, 78, 79, 80, 82, 82, 83, 84, 84, 85, 86,
         86, 86, 86, 86, 87, 88, 88, 89, 89, 89, 89;
             int(1..383)]
letting prerequisite_RelationAsSet_Explicit_2 be
        [14, 19, 28, 44, 49, 55, 57, 63, 64, 65, 67, 71, 74, 79, 82, 83, 88, 16, 18, 27, 29, 39, 44, 52, 53, 58, 64, 65,
         66, 67, 70, 71, 75, 83, 85, 86, 87, 19, 20, 21, 40, 42, 43, 44, 48, 70, 72, 73, 74, 77, 79, 82, 83, 86, 89, 15,
         17, 21, 22, 24, 29, 34, 35, 48, 51, 52, 53, 54, 55, 61, 62, 64, 69, 70, 80, 84, 23, 29, 34, 35, 42, 43, 47, 50,
         51, 52, 68, 73, 75, 79, 15, 20, 33, 39, 42, 52, 56, 61, 64, 65, 77, 81, 84, 85, 16, 22, 28, 57, 58, 63, 64, 66,
         67, 68, 69, 77, 83, 17, 19, 22, 27, 30, 31, 32, 34, 41, 44, 51, 58, 62, 66, 72, 73, 79, 80, 82, 86, 21, 27, 28,
         32, 40, 49, 51, 53, 58, 61, 63, 69, 81, 86, 21, 25, 26, 31, 34, 35, 36, 39, 45, 46, 50, 52, 60, 61, 73, 77, 80,
         81, 84, 88, 89, 16, 18, 23, 27, 44, 49, 53, 54, 58, 59, 65, 67, 68, 77, 78, 85, 87, 16, 23, 26, 27, 28, 30, 31,
         33, 35, 37, 42, 46, 48, 49, 50, 51, 52, 54, 57, 70, 75, 76, 15, 18, 19, 21, 26, 27, 28, 30, 38, 41, 48, 54, 55,
         57, 63, 68, 72, 74, 76, 81, 93, 94, 99, 93, 95, 102, 97, 101, 95, 94, 97, 98, 92, 99, 94, 95, 97, 90, 102, 90,
         92, 96, 100, 101, 92, 101, 95, 102, 103, 94, 103, 90, 95, 97, 92, 96, 103, 90, 94, 96, 97, 98, 100, 101, 90,
         95, 95, 90, 99, 100, 103, 90, 92, 94, 95, 94, 96, 99, 90, 91, 91, 93, 96, 102, 94, 98, 101, 91, 96, 98, 101,
         91, 92, 95, 91, 92, 102, 91, 102, 95, 91, 90, 97, 103, 97, 98, 100, 98, 101, 99, 100, 103, 92, 94, 102, 91, 90,
         92, 100, 102, 94, 100, 90, 92, 90, 92, 95, 97, 98, 93, 98, 102, 96, 96, 101, 97, 98, 90, 98, 103, 95, 98, 94,
         95, 98, 100, 102, 103, 98, 99, 94, 100, 95, 101, 92, 101, 102, 102, 103, 90, 93, 95, 96, 97, 101, 102, 100,
         101, 92, 93, 98, 101;
             int(1..383)]
letting course_load_Function1D be
        [6, 6, 5, 5, 9, 6, 7, 7, 5, 8, 6, 6, 6, 7, 7, 8, 7, 9, 7, 6, 9, 5, 6, 7, 7, 8, 7, 6, 9, 7, 6, 6, 6, 7, 6, 9, 5,
         9, 7, 6, 8, 6, 7, 8, 7, 9, 7, 6, 5, 8, 5, 5, 8, 7, 5, 7, 6, 6, 8, 5, 8, 7, 6, 8, 8, 5, 7, 7, 9, 7, 6, 5, 9, 8,
         8, 6, 5, 7, 7, 6, 8, 8, 7, 6, 5, 7, 7, 6, 5, 7, 8, 8, 7, 8, 5, 5, 8, 8, 7, 9, 7, 7, 6;
             int(1..103)]
letting load_per_period_ub be 34
letting load_per_period_lb be 1
letting courses_per_period_ub be 8
letting courses_per_period_lb be 4
letting fin1 be 383
letting fin2 be 103
letting fin3 be 9
